0
0
0
0
19
0
0
0
0
0
0
0
0
0
0
0
0
0
0
0
0
0
0
0
1 2 1
1 3 1
1 4 0
1 5 1
1 6 1
1 7 1
1 8 1
1 9 1
1 10 1
1 11 0
1 12 1
1 13 1
1 14 1
1 15 1
1 16 1
1 17 0
1 18 1
1 19 0
2 3 1
2 4 0
2 5 0
2 6 0
2 7 0
2 8 1
2 9 1
2 10 0
2 11 1
2 12 1
2 13 0
2 14 0
2 15 1
2 16 0
2 17 0
2 18 1
2 19 1
3 4 1
3 5 1
3 6 1
3 7 1
3 8 0
3 9 0
3 10 1
3 11 1
3 12 1
3 13 0
3 14 0
3 15 0
3 16 1
3 17 1
3 18 0
3 19 1
4 5 0
4 6 1
4 7 1
4 8 1
4 9 0
4 10 1
4 11 0
4 12 0
4 13 1
4 14 1
4 15 0
4 16 0
4 17 0
4 18 0
4 19 1
5 6 1
5 7 0
5 8 1
5 9 0
5 10 1
5 11 1
5 12 0
5 13 1
5 14 1
5 15 0
5 16 1
5 17 0
5 18 0
5 19 0
6 7 1
6 8 0
6 9 1
6 10 1
6 11 1
6 12 1
6 13 1
6 14 1
6 15 0
6 16 1
6 17 0
6 18 0
6 19 1
7 8 0
7 9 1
7 10 0
7 11 0
7 12 1
7 13 1
7 14 0
7 15 0
7 16 0
7 17 0
7 18 1
7 19 1
8 9 0
8 10 1
8 11 0
8 12 1
8 13 0
8 14 0
8 15 0
8 16 0
8 17 0
8 18 0
8 19 0
9 10 1
9 11 1
9 12 1
9 13 0
9 14 0
9 15 1
9 16 1
9 17 1
9 18 1
9 19 0
10 11 0
10 12 1
10 13 0
10 14 0
10 15 1
10 16 1
10 17 1
10 18 1
10 19 0
11 12 1
11 13 1
11 14 0
11 15 1
11 16 1
11 17 1
11 18 1
11 19 1
12 13 0
12 14 0
12 15 1
12 16 0
12 17 0
12 18 1
12 19 0
13 14 1
13 15 1
13 16 1
13 17 1
13 18 1
13 19 1
14 15 1
14 16 0
14 17 1
14 18 0
14 19 0
15 16 1
15 17 1
15 18 0
15 19 1
16 17 1
16 18 0
16 19 0
17 18 1
17 19 0
18 19 1
